#######################################
### Exact MIP solver for the HHCRSP ###
#######################################
-- Instance file: new-instances/HHCRSP_200_40_43_0.4_R_C.txt
-- Max threads: 4
-- Time limit: 999999 seconds
-- Use initial solution: No
Trivial flow violations prevented generating 350079 variables.
Version identifier: 20.1.0.0 | 2020-11-10 | 9bedb6d68
CPXPARAM_Threads                                 4
CPXPARAM_TimeLimit                               999999
Parallel mode: deterministic, using up to 4 threads for concurrent optimization:
 * Starting dual Simplex on 1 thread...
 * Starting Barrier on 3 threads...
Tried aggregator 1 time.
LP Presolve eliminated 20046 rows and 4386 columns.
Reduced LP has 354022 rows, 336194 columns, and 6113065 nonzeros.
Presolve time = 13.02 sec. (1415.56 ticks)
Symmetry aggregator did 500385 additional substitutions.

Iteration log . . .
Iteration:     1   Dual objective     =             0.000000
Iteration:   917   Dual objective     =           306.000000

Dual crossover.
  Dual:  Fixing 914 variables.
      913 DMoves:  Infeasibility  7.65054686e-13  Objective  3.06666667e+02
        0 DMoves:  Infeasibility  2.92210700e-13  Objective  3.06666667e+02
  Dual:  Pushed 23, exchanged 891.
  Primal:  Fixing 486 variables.
      485 PMoves:  Infeasibility  5.55111512e-17  Objective  3.06666667e+02
        0 PMoves:  Infeasibility  6.10622664e-16  Objective  3.06666667e+02
  Primal:  Pushed 386, exchanged 100.

Dual simplex solved model.


Solution status from MIP model:
-- Processing time: 23.01 sec.
-- Memory used: 400.272 MB
-- Best bound: inf
-- Obj value: 306.667
-- Gap: inf%
-- Total distance: 920
-- Total tardiness: 0
-- Largest tardiness: 0
